c *********************************
c * Circuit generated by BenCGen
c *
c * Parity_417
c *
c * Ports with 1 gate(s): 1
c * Ports with 2 gate(s): 417
c * Total gates: 418
c *********************************
p cnf 835 1669
1 420 0
-1 -420 0
1 -419 0
420 -419 0
-1 -420 419 0
1 2 -421 0
-1 2 421 0
1 -2 421 0
-1 -2 -421 0
3 4 -422 0
-3 4 422 0
3 -4 422 0
-3 -4 -422 0
5 6 -423 0
-5 6 423 0
5 -6 423 0
-5 -6 -423 0
7 8 -424 0
-7 8 424 0
7 -8 424 0
-7 -8 -424 0
9 10 -425 0
-9 10 425 0
9 -10 425 0
-9 -10 -425 0
11 12 -426 0
-11 12 426 0
11 -12 426 0
-11 -12 -426 0
13 14 -427 0
-13 14 427 0
13 -14 427 0
-13 -14 -427 0
15 16 -428 0
-15 16 428 0
15 -16 428 0
-15 -16 -428 0
17 18 -429 0
-17 18 429 0
17 -18 429 0
-17 -18 -429 0
19 20 -430 0
-19 20 430 0
19 -20 430 0
-19 -20 -430 0
21 22 -431 0
-21 22 431 0
21 -22 431 0
-21 -22 -431 0
23 24 -432 0
-23 24 432 0
23 -24 432 0
-23 -24 -432 0
25 26 -433 0
-25 26 433 0
25 -26 433 0
-25 -26 -433 0
27 28 -434 0
-27 28 434 0
27 -28 434 0
-27 -28 -434 0
29 30 -435 0
-29 30 435 0
29 -30 435 0
-29 -30 -435 0
31 32 -436 0
-31 32 436 0
31 -32 436 0
-31 -32 -436 0
33 34 -437 0
-33 34 437 0
33 -34 437 0
-33 -34 -437 0
35 36 -438 0
-35 36 438 0
35 -36 438 0
-35 -36 -438 0
37 38 -439 0
-37 38 439 0
37 -38 439 0
-37 -38 -439 0
39 40 -440 0
-39 40 440 0
39 -40 440 0
-39 -40 -440 0
41 42 -441 0
-41 42 441 0
41 -42 441 0
-41 -42 -441 0
43 44 -442 0
-43 44 442 0
43 -44 442 0
-43 -44 -442 0
45 46 -443 0
-45 46 443 0
45 -46 443 0
-45 -46 -443 0
47 48 -444 0
-47 48 444 0
47 -48 444 0
-47 -48 -444 0
49 50 -445 0
-49 50 445 0
49 -50 445 0
-49 -50 -445 0
51 52 -446 0
-51 52 446 0
51 -52 446 0
-51 -52 -446 0
53 54 -447 0
-53 54 447 0
53 -54 447 0
-53 -54 -447 0
55 56 -448 0
-55 56 448 0
55 -56 448 0
-55 -56 -448 0
57 58 -449 0
-57 58 449 0
57 -58 449 0
-57 -58 -449 0
59 60 -450 0
-59 60 450 0
59 -60 450 0
-59 -60 -450 0
61 62 -451 0
-61 62 451 0
61 -62 451 0
-61 -62 -451 0
63 64 -452 0
-63 64 452 0
63 -64 452 0
-63 -64 -452 0
65 66 -453 0
-65 66 453 0
65 -66 453 0
-65 -66 -453 0
67 68 -454 0
-67 68 454 0
67 -68 454 0
-67 -68 -454 0
69 70 -455 0
-69 70 455 0
69 -70 455 0
-69 -70 -455 0
71 72 -456 0
-71 72 456 0
71 -72 456 0
-71 -72 -456 0
73 74 -457 0
-73 74 457 0
73 -74 457 0
-73 -74 -457 0
75 76 -458 0
-75 76 458 0
75 -76 458 0
-75 -76 -458 0
77 78 -459 0
-77 78 459 0
77 -78 459 0
-77 -78 -459 0
79 80 -460 0
-79 80 460 0
79 -80 460 0
-79 -80 -460 0
81 82 -461 0
-81 82 461 0
81 -82 461 0
-81 -82 -461 0
83 84 -462 0
-83 84 462 0
83 -84 462 0
-83 -84 -462 0
85 86 -463 0
-85 86 463 0
85 -86 463 0
-85 -86 -463 0
87 88 -464 0
-87 88 464 0
87 -88 464 0
-87 -88 -464 0
89 90 -465 0
-89 90 465 0
89 -90 465 0
-89 -90 -465 0
91 92 -466 0
-91 92 466 0
91 -92 466 0
-91 -92 -466 0
93 94 -467 0
-93 94 467 0
93 -94 467 0
-93 -94 -467 0
95 96 -468 0
-95 96 468 0
95 -96 468 0
-95 -96 -468 0
97 98 -469 0
-97 98 469 0
97 -98 469 0
-97 -98 -469 0
99 100 -470 0
-99 100 470 0
99 -100 470 0
-99 -100 -470 0
101 102 -471 0
-101 102 471 0
101 -102 471 0
-101 -102 -471 0
103 104 -472 0
-103 104 472 0
103 -104 472 0
-103 -104 -472 0
105 106 -473 0
-105 106 473 0
105 -106 473 0
-105 -106 -473 0
107 108 -474 0
-107 108 474 0
107 -108 474 0
-107 -108 -474 0
109 110 -475 0
-109 110 475 0
109 -110 475 0
-109 -110 -475 0
111 112 -476 0
-111 112 476 0
111 -112 476 0
-111 -112 -476 0
113 114 -477 0
-113 114 477 0
113 -114 477 0
-113 -114 -477 0
115 116 -478 0
-115 116 478 0
115 -116 478 0
-115 -116 -478 0
117 118 -479 0
-117 118 479 0
117 -118 479 0
-117 -118 -479 0
119 120 -480 0
-119 120 480 0
119 -120 480 0
-119 -120 -480 0
121 122 -481 0
-121 122 481 0
121 -122 481 0
-121 -122 -481 0
123 124 -482 0
-123 124 482 0
123 -124 482 0
-123 -124 -482 0
125 126 -483 0
-125 126 483 0
125 -126 483 0
-125 -126 -483 0
127 128 -484 0
-127 128 484 0
127 -128 484 0
-127 -128 -484 0
129 130 -485 0
-129 130 485 0
129 -130 485 0
-129 -130 -485 0
131 132 -486 0
-131 132 486 0
131 -132 486 0
-131 -132 -486 0
133 134 -487 0
-133 134 487 0
133 -134 487 0
-133 -134 -487 0
135 136 -488 0
-135 136 488 0
135 -136 488 0
-135 -136 -488 0
137 138 -489 0
-137 138 489 0
137 -138 489 0
-137 -138 -489 0
139 140 -490 0
-139 140 490 0
139 -140 490 0
-139 -140 -490 0
141 142 -491 0
-141 142 491 0
141 -142 491 0
-141 -142 -491 0
143 144 -492 0
-143 144 492 0
143 -144 492 0
-143 -144 -492 0
145 146 -493 0
-145 146 493 0
145 -146 493 0
-145 -146 -493 0
147 148 -494 0
-147 148 494 0
147 -148 494 0
-147 -148 -494 0
149 150 -495 0
-149 150 495 0
149 -150 495 0
-149 -150 -495 0
151 152 -496 0
-151 152 496 0
151 -152 496 0
-151 -152 -496 0
153 154 -497 0
-153 154 497 0
153 -154 497 0
-153 -154 -497 0
155 156 -498 0
-155 156 498 0
155 -156 498 0
-155 -156 -498 0
157 158 -499 0
-157 158 499 0
157 -158 499 0
-157 -158 -499 0
159 160 -500 0
-159 160 500 0
159 -160 500 0
-159 -160 -500 0
161 162 -501 0
-161 162 501 0
161 -162 501 0
-161 -162 -501 0
163 164 -502 0
-163 164 502 0
163 -164 502 0
-163 -164 -502 0
165 166 -503 0
-165 166 503 0
165 -166 503 0
-165 -166 -503 0
167 168 -504 0
-167 168 504 0
167 -168 504 0
-167 -168 -504 0
169 170 -505 0
-169 170 505 0
169 -170 505 0
-169 -170 -505 0
171 172 -506 0
-171 172 506 0
171 -172 506 0
-171 -172 -506 0
173 174 -507 0
-173 174 507 0
173 -174 507 0
-173 -174 -507 0
175 176 -508 0
-175 176 508 0
175 -176 508 0
-175 -176 -508 0
177 178 -509 0
-177 178 509 0
177 -178 509 0
-177 -178 -509 0
179 180 -510 0
-179 180 510 0
179 -180 510 0
-179 -180 -510 0
181 182 -511 0
-181 182 511 0
181 -182 511 0
-181 -182 -511 0
183 184 -512 0
-183 184 512 0
183 -184 512 0
-183 -184 -512 0
185 186 -513 0
-185 186 513 0
185 -186 513 0
-185 -186 -513 0
187 188 -514 0
-187 188 514 0
187 -188 514 0
-187 -188 -514 0
189 190 -515 0
-189 190 515 0
189 -190 515 0
-189 -190 -515 0
191 192 -516 0
-191 192 516 0
191 -192 516 0
-191 -192 -516 0
193 194 -517 0
-193 194 517 0
193 -194 517 0
-193 -194 -517 0
195 196 -518 0
-195 196 518 0
195 -196 518 0
-195 -196 -518 0
197 198 -519 0
-197 198 519 0
197 -198 519 0
-197 -198 -519 0
199 200 -520 0
-199 200 520 0
199 -200 520 0
-199 -200 -520 0
201 202 -521 0
-201 202 521 0
201 -202 521 0
-201 -202 -521 0
203 204 -522 0
-203 204 522 0
203 -204 522 0
-203 -204 -522 0
205 206 -523 0
-205 206 523 0
205 -206 523 0
-205 -206 -523 0
207 208 -524 0
-207 208 524 0
207 -208 524 0
-207 -208 -524 0
209 210 -525 0
-209 210 525 0
209 -210 525 0
-209 -210 -525 0
211 212 -526 0
-211 212 526 0
211 -212 526 0
-211 -212 -526 0
213 214 -527 0
-213 214 527 0
213 -214 527 0
-213 -214 -527 0
215 216 -528 0
-215 216 528 0
215 -216 528 0
-215 -216 -528 0
217 218 -529 0
-217 218 529 0
217 -218 529 0
-217 -218 -529 0
219 220 -530 0
-219 220 530 0
219 -220 530 0
-219 -220 -530 0
221 222 -531 0
-221 222 531 0
221 -222 531 0
-221 -222 -531 0
223 224 -532 0
-223 224 532 0
223 -224 532 0
-223 -224 -532 0
225 226 -533 0
-225 226 533 0
225 -226 533 0
-225 -226 -533 0
227 228 -534 0
-227 228 534 0
227 -228 534 0
-227 -228 -534 0
229 230 -535 0
-229 230 535 0
229 -230 535 0
-229 -230 -535 0
231 232 -536 0
-231 232 536 0
231 -232 536 0
-231 -232 -536 0
233 234 -537 0
-233 234 537 0
233 -234 537 0
-233 -234 -537 0
235 236 -538 0
-235 236 538 0
235 -236 538 0
-235 -236 -538 0
237 238 -539 0
-237 238 539 0
237 -238 539 0
-237 -238 -539 0
239 240 -540 0
-239 240 540 0
239 -240 540 0
-239 -240 -540 0
241 242 -541 0
-241 242 541 0
241 -242 541 0
-241 -242 -541 0
243 244 -542 0
-243 244 542 0
243 -244 542 0
-243 -244 -542 0
245 246 -543 0
-245 246 543 0
245 -246 543 0
-245 -246 -543 0
247 248 -544 0
-247 248 544 0
247 -248 544 0
-247 -248 -544 0
249 250 -545 0
-249 250 545 0
249 -250 545 0
-249 -250 -545 0
251 252 -546 0
-251 252 546 0
251 -252 546 0
-251 -252 -546 0
253 254 -547 0
-253 254 547 0
253 -254 547 0
-253 -254 -547 0
255 256 -548 0
-255 256 548 0
255 -256 548 0
-255 -256 -548 0
257 258 -549 0
-257 258 549 0
257 -258 549 0
-257 -258 -549 0
259 260 -550 0
-259 260 550 0
259 -260 550 0
-259 -260 -550 0
261 262 -551 0
-261 262 551 0
261 -262 551 0
-261 -262 -551 0
263 264 -552 0
-263 264 552 0
263 -264 552 0
-263 -264 -552 0
265 266 -553 0
-265 266 553 0
265 -266 553 0
-265 -266 -553 0
267 268 -554 0
-267 268 554 0
267 -268 554 0
-267 -268 -554 0
269 270 -555 0
-269 270 555 0
269 -270 555 0
-269 -270 -555 0
271 272 -556 0
-271 272 556 0
271 -272 556 0
-271 -272 -556 0
273 274 -557 0
-273 274 557 0
273 -274 557 0
-273 -274 -557 0
275 276 -558 0
-275 276 558 0
275 -276 558 0
-275 -276 -558 0
277 278 -559 0
-277 278 559 0
277 -278 559 0
-277 -278 -559 0
279 280 -560 0
-279 280 560 0
279 -280 560 0
-279 -280 -560 0
281 282 -561 0
-281 282 561 0
281 -282 561 0
-281 -282 -561 0
283 284 -562 0
-283 284 562 0
283 -284 562 0
-283 -284 -562 0
285 286 -563 0
-285 286 563 0
285 -286 563 0
-285 -286 -563 0
287 288 -564 0
-287 288 564 0
287 -288 564 0
-287 -288 -564 0
289 290 -565 0
-289 290 565 0
289 -290 565 0
-289 -290 -565 0
291 292 -566 0
-291 292 566 0
291 -292 566 0
-291 -292 -566 0
293 294 -567 0
-293 294 567 0
293 -294 567 0
-293 -294 -567 0
295 296 -568 0
-295 296 568 0
295 -296 568 0
-295 -296 -568 0
297 298 -569 0
-297 298 569 0
297 -298 569 0
-297 -298 -569 0
299 300 -570 0
-299 300 570 0
299 -300 570 0
-299 -300 -570 0
301 302 -571 0
-301 302 571 0
301 -302 571 0
-301 -302 -571 0
303 304 -572 0
-303 304 572 0
303 -304 572 0
-303 -304 -572 0
305 306 -573 0
-305 306 573 0
305 -306 573 0
-305 -306 -573 0
307 308 -574 0
-307 308 574 0
307 -308 574 0
-307 -308 -574 0
309 310 -575 0
-309 310 575 0
309 -310 575 0
-309 -310 -575 0
311 312 -576 0
-311 312 576 0
311 -312 576 0
-311 -312 -576 0
313 314 -577 0
-313 314 577 0
313 -314 577 0
-313 -314 -577 0
315 316 -578 0
-315 316 578 0
315 -316 578 0
-315 -316 -578 0
317 318 -579 0
-317 318 579 0
317 -318 579 0
-317 -318 -579 0
319 320 -580 0
-319 320 580 0
319 -320 580 0
-319 -320 -580 0
321 322 -581 0
-321 322 581 0
321 -322 581 0
-321 -322 -581 0
323 324 -582 0
-323 324 582 0
323 -324 582 0
-323 -324 -582 0
325 326 -583 0
-325 326 583 0
325 -326 583 0
-325 -326 -583 0
327 328 -584 0
-327 328 584 0
327 -328 584 0
-327 -328 -584 0
329 330 -585 0
-329 330 585 0
329 -330 585 0
-329 -330 -585 0
331 332 -586 0
-331 332 586 0
331 -332 586 0
-331 -332 -586 0
333 334 -587 0
-333 334 587 0
333 -334 587 0
-333 -334 -587 0
335 336 -588 0
-335 336 588 0
335 -336 588 0
-335 -336 -588 0
337 338 -589 0
-337 338 589 0
337 -338 589 0
-337 -338 -589 0
339 340 -590 0
-339 340 590 0
339 -340 590 0
-339 -340 -590 0
341 342 -591 0
-341 342 591 0
341 -342 591 0
-341 -342 -591 0
343 344 -592 0
-343 344 592 0
343 -344 592 0
-343 -344 -592 0
345 346 -593 0
-345 346 593 0
345 -346 593 0
-345 -346 -593 0
347 348 -594 0
-347 348 594 0
347 -348 594 0
-347 -348 -594 0
349 350 -595 0
-349 350 595 0
349 -350 595 0
-349 -350 -595 0
351 352 -596 0
-351 352 596 0
351 -352 596 0
-351 -352 -596 0
353 354 -597 0
-353 354 597 0
353 -354 597 0
-353 -354 -597 0
355 356 -598 0
-355 356 598 0
355 -356 598 0
-355 -356 -598 0
357 358 -599 0
-357 358 599 0
357 -358 599 0
-357 -358 -599 0
359 360 -600 0
-359 360 600 0
359 -360 600 0
-359 -360 -600 0
361 362 -601 0
-361 362 601 0
361 -362 601 0
-361 -362 -601 0
363 364 -602 0
-363 364 602 0
363 -364 602 0
-363 -364 -602 0
365 366 -603 0
-365 366 603 0
365 -366 603 0
-365 -366 -603 0
367 368 -604 0
-367 368 604 0
367 -368 604 0
-367 -368 -604 0
369 370 -605 0
-369 370 605 0
369 -370 605 0
-369 -370 -605 0
371 372 -606 0
-371 372 606 0
371 -372 606 0
-371 -372 -606 0
373 374 -607 0
-373 374 607 0
373 -374 607 0
-373 -374 -607 0
375 376 -608 0
-375 376 608 0
375 -376 608 0
-375 -376 -608 0
377 378 -609 0
-377 378 609 0
377 -378 609 0
-377 -378 -609 0
379 380 -610 0
-379 380 610 0
379 -380 610 0
-379 -380 -610 0
381 382 -611 0
-381 382 611 0
381 -382 611 0
-381 -382 -611 0
383 384 -612 0
-383 384 612 0
383 -384 612 0
-383 -384 -612 0
385 386 -613 0
-385 386 613 0
385 -386 613 0
-385 -386 -613 0
387 388 -614 0
-387 388 614 0
387 -388 614 0
-387 -388 -614 0
389 390 -615 0
-389 390 615 0
389 -390 615 0
-389 -390 -615 0
391 392 -616 0
-391 392 616 0
391 -392 616 0
-391 -392 -616 0
393 394 -617 0
-393 394 617 0
393 -394 617 0
-393 -394 -617 0
395 396 -618 0
-395 396 618 0
395 -396 618 0
-395 -396 -618 0
397 398 -619 0
-397 398 619 0
397 -398 619 0
-397 -398 -619 0
399 400 -620 0
-399 400 620 0
399 -400 620 0
-399 -400 -620 0
401 402 -621 0
-401 402 621 0
401 -402 621 0
-401 -402 -621 0
403 404 -622 0
-403 404 622 0
403 -404 622 0
-403 -404 -622 0
405 406 -623 0
-405 406 623 0
405 -406 623 0
-405 -406 -623 0
407 408 -624 0
-407 408 624 0
407 -408 624 0
-407 -408 -624 0
409 410 -625 0
-409 410 625 0
409 -410 625 0
-409 -410 -625 0
411 412 -626 0
-411 412 626 0
411 -412 626 0
-411 -412 -626 0
413 414 -627 0
-413 414 627 0
413 -414 627 0
-413 -414 -627 0
415 416 -628 0
-415 416 628 0
415 -416 628 0
-415 -416 -628 0
421 422 -629 0
-421 422 629 0
421 -422 629 0
-421 -422 -629 0
423 424 -630 0
-423 424 630 0
423 -424 630 0
-423 -424 -630 0
425 426 -631 0
-425 426 631 0
425 -426 631 0
-425 -426 -631 0
427 428 -632 0
-427 428 632 0
427 -428 632 0
-427 -428 -632 0
429 430 -633 0
-429 430 633 0
429 -430 633 0
-429 -430 -633 0
431 432 -634 0
-431 432 634 0
431 -432 634 0
-431 -432 -634 0
433 434 -635 0
-433 434 635 0
433 -434 635 0
-433 -434 -635 0
435 436 -636 0
-435 436 636 0
435 -436 636 0
-435 -436 -636 0
437 438 -637 0
-437 438 637 0
437 -438 637 0
-437 -438 -637 0
439 440 -638 0
-439 440 638 0
439 -440 638 0
-439 -440 -638 0
441 442 -639 0
-441 442 639 0
441 -442 639 0
-441 -442 -639 0
443 444 -640 0
-443 444 640 0
443 -444 640 0
-443 -444 -640 0
445 446 -641 0
-445 446 641 0
445 -446 641 0
-445 -446 -641 0
447 448 -642 0
-447 448 642 0
447 -448 642 0
-447 -448 -642 0
449 450 -643 0
-449 450 643 0
449 -450 643 0
-449 -450 -643 0
451 452 -644 0
-451 452 644 0
451 -452 644 0
-451 -452 -644 0
453 454 -645 0
-453 454 645 0
453 -454 645 0
-453 -454 -645 0
455 456 -646 0
-455 456 646 0
455 -456 646 0
-455 -456 -646 0
457 458 -647 0
-457 458 647 0
457 -458 647 0
-457 -458 -647 0
459 460 -648 0
-459 460 648 0
459 -460 648 0
-459 -460 -648 0
461 462 -649 0
-461 462 649 0
461 -462 649 0
-461 -462 -649 0
463 464 -650 0
-463 464 650 0
463 -464 650 0
-463 -464 -650 0
465 466 -651 0
-465 466 651 0
465 -466 651 0
-465 -466 -651 0
467 468 -652 0
-467 468 652 0
467 -468 652 0
-467 -468 -652 0
469 470 -653 0
-469 470 653 0
469 -470 653 0
-469 -470 -653 0
471 472 -654 0
-471 472 654 0
471 -472 654 0
-471 -472 -654 0
473 474 -655 0
-473 474 655 0
473 -474 655 0
-473 -474 -655 0
475 476 -656 0
-475 476 656 0
475 -476 656 0
-475 -476 -656 0
477 478 -657 0
-477 478 657 0
477 -478 657 0
-477 -478 -657 0
479 480 -658 0
-479 480 658 0
479 -480 658 0
-479 -480 -658 0
481 482 -659 0
-481 482 659 0
481 -482 659 0
-481 -482 -659 0
483 484 -660 0
-483 484 660 0
483 -484 660 0
-483 -484 -660 0
485 486 -661 0
-485 486 661 0
485 -486 661 0
-485 -486 -661 0
487 488 -662 0
-487 488 662 0
487 -488 662 0
-487 -488 -662 0
489 490 -663 0
-489 490 663 0
489 -490 663 0
-489 -490 -663 0
491 492 -664 0
-491 492 664 0
491 -492 664 0
-491 -492 -664 0
493 494 -665 0
-493 494 665 0
493 -494 665 0
-493 -494 -665 0
495 496 -666 0
-495 496 666 0
495 -496 666 0
-495 -496 -666 0
497 498 -667 0
-497 498 667 0
497 -498 667 0
-497 -498 -667 0
499 500 -668 0
-499 500 668 0
499 -500 668 0
-499 -500 -668 0
501 502 -669 0
-501 502 669 0
501 -502 669 0
-501 -502 -669 0
503 504 -670 0
-503 504 670 0
503 -504 670 0
-503 -504 -670 0
505 506 -671 0
-505 506 671 0
505 -506 671 0
-505 -506 -671 0
507 508 -672 0
-507 508 672 0
507 -508 672 0
-507 -508 -672 0
509 510 -673 0
-509 510 673 0
509 -510 673 0
-509 -510 -673 0
511 512 -674 0
-511 512 674 0
511 -512 674 0
-511 -512 -674 0
513 514 -675 0
-513 514 675 0
513 -514 675 0
-513 -514 -675 0
515 516 -676 0
-515 516 676 0
515 -516 676 0
-515 -516 -676 0
517 518 -677 0
-517 518 677 0
517 -518 677 0
-517 -518 -677 0
519 520 -678 0
-519 520 678 0
519 -520 678 0
-519 -520 -678 0
521 522 -679 0
-521 522 679 0
521 -522 679 0
-521 -522 -679 0
523 524 -680 0
-523 524 680 0
523 -524 680 0
-523 -524 -680 0
525 526 -681 0
-525 526 681 0
525 -526 681 0
-525 -526 -681 0
527 528 -682 0
-527 528 682 0
527 -528 682 0
-527 -528 -682 0
529 530 -683 0
-529 530 683 0
529 -530 683 0
-529 -530 -683 0
531 532 -684 0
-531 532 684 0
531 -532 684 0
-531 -532 -684 0
533 534 -685 0
-533 534 685 0
533 -534 685 0
-533 -534 -685 0
535 536 -686 0
-535 536 686 0
535 -536 686 0
-535 -536 -686 0
537 538 -687 0
-537 538 687 0
537 -538 687 0
-537 -538 -687 0
539 540 -688 0
-539 540 688 0
539 -540 688 0
-539 -540 -688 0
541 542 -689 0
-541 542 689 0
541 -542 689 0
-541 -542 -689 0
543 544 -690 0
-543 544 690 0
543 -544 690 0
-543 -544 -690 0
545 546 -691 0
-545 546 691 0
545 -546 691 0
-545 -546 -691 0
547 548 -692 0
-547 548 692 0
547 -548 692 0
-547 -548 -692 0
549 550 -693 0
-549 550 693 0
549 -550 693 0
-549 -550 -693 0
551 552 -694 0
-551 552 694 0
551 -552 694 0
-551 -552 -694 0
553 554 -695 0
-553 554 695 0
553 -554 695 0
-553 -554 -695 0
555 556 -696 0
-555 556 696 0
555 -556 696 0
-555 -556 -696 0
557 558 -697 0
-557 558 697 0
557 -558 697 0
-557 -558 -697 0
559 560 -698 0
-559 560 698 0
559 -560 698 0
-559 -560 -698 0
561 562 -699 0
-561 562 699 0
561 -562 699 0
-561 -562 -699 0
563 564 -700 0
-563 564 700 0
563 -564 700 0
-563 -564 -700 0
565 566 -701 0
-565 566 701 0
565 -566 701 0
-565 -566 -701 0
567 568 -702 0
-567 568 702 0
567 -568 702 0
-567 -568 -702 0
569 570 -703 0
-569 570 703 0
569 -570 703 0
-569 -570 -703 0
571 572 -704 0
-571 572 704 0
571 -572 704 0
-571 -572 -704 0
573 574 -705 0
-573 574 705 0
573 -574 705 0
-573 -574 -705 0
575 576 -706 0
-575 576 706 0
575 -576 706 0
-575 -576 -706 0
577 578 -707 0
-577 578 707 0
577 -578 707 0
-577 -578 -707 0
579 580 -708 0
-579 580 708 0
579 -580 708 0
-579 -580 -708 0
581 582 -709 0
-581 582 709 0
581 -582 709 0
-581 -582 -709 0
583 584 -710 0
-583 584 710 0
583 -584 710 0
-583 -584 -710 0
585 586 -711 0
-585 586 711 0
585 -586 711 0
-585 -586 -711 0
587 588 -712 0
-587 588 712 0
587 -588 712 0
-587 -588 -712 0
589 590 -713 0
-589 590 713 0
589 -590 713 0
-589 -590 -713 0
591 592 -714 0
-591 592 714 0
591 -592 714 0
-591 -592 -714 0
593 594 -715 0
-593 594 715 0
593 -594 715 0
-593 -594 -715 0
595 596 -716 0
-595 596 716 0
595 -596 716 0
-595 -596 -716 0
597 598 -717 0
-597 598 717 0
597 -598 717 0
-597 -598 -717 0
599 600 -718 0
-599 600 718 0
599 -600 718 0
-599 -600 -718 0
601 602 -719 0
-601 602 719 0
601 -602 719 0
-601 -602 -719 0
603 604 -720 0
-603 604 720 0
603 -604 720 0
-603 -604 -720 0
605 606 -721 0
-605 606 721 0
605 -606 721 0
-605 -606 -721 0
607 608 -722 0
-607 608 722 0
607 -608 722 0
-607 -608 -722 0
609 610 -723 0
-609 610 723 0
609 -610 723 0
-609 -610 -723 0
611 612 -724 0
-611 612 724 0
611 -612 724 0
-611 -612 -724 0
613 614 -725 0
-613 614 725 0
613 -614 725 0
-613 -614 -725 0
615 616 -726 0
-615 616 726 0
615 -616 726 0
-615 -616 -726 0
617 618 -727 0
-617 618 727 0
617 -618 727 0
-617 -618 -727 0
619 620 -728 0
-619 620 728 0
619 -620 728 0
-619 -620 -728 0
621 622 -729 0
-621 622 729 0
621 -622 729 0
-621 -622 -729 0
623 624 -730 0
-623 624 730 0
623 -624 730 0
-623 -624 -730 0
625 626 -731 0
-625 626 731 0
625 -626 731 0
-625 -626 -731 0
627 628 -732 0
-627 628 732 0
627 -628 732 0
-627 -628 -732 0
629 630 -733 0
-629 630 733 0
629 -630 733 0
-629 -630 -733 0
631 632 -734 0
-631 632 734 0
631 -632 734 0
-631 -632 -734 0
633 634 -735 0
-633 634 735 0
633 -634 735 0
-633 -634 -735 0
635 636 -736 0
-635 636 736 0
635 -636 736 0
-635 -636 -736 0
637 638 -737 0
-637 638 737 0
637 -638 737 0
-637 -638 -737 0
639 640 -738 0
-639 640 738 0
639 -640 738 0
-639 -640 -738 0
641 642 -739 0
-641 642 739 0
641 -642 739 0
-641 -642 -739 0
643 644 -740 0
-643 644 740 0
643 -644 740 0
-643 -644 -740 0
645 646 -741 0
-645 646 741 0
645 -646 741 0
-645 -646 -741 0
647 648 -742 0
-647 648 742 0
647 -648 742 0
-647 -648 -742 0
649 650 -743 0
-649 650 743 0
649 -650 743 0
-649 -650 -743 0
651 652 -744 0
-651 652 744 0
651 -652 744 0
-651 -652 -744 0
653 654 -745 0
-653 654 745 0
653 -654 745 0
-653 -654 -745 0
655 656 -746 0
-655 656 746 0
655 -656 746 0
-655 -656 -746 0
657 658 -747 0
-657 658 747 0
657 -658 747 0
-657 -658 -747 0
659 660 -748 0
-659 660 748 0
659 -660 748 0
-659 -660 -748 0
661 662 -749 0
-661 662 749 0
661 -662 749 0
-661 -662 -749 0
663 664 -750 0
-663 664 750 0
663 -664 750 0
-663 -664 -750 0
665 666 -751 0
-665 666 751 0
665 -666 751 0
-665 -666 -751 0
667 668 -752 0
-667 668 752 0
667 -668 752 0
-667 -668 -752 0
669 670 -753 0
-669 670 753 0
669 -670 753 0
-669 -670 -753 0
671 672 -754 0
-671 672 754 0
671 -672 754 0
-671 -672 -754 0
673 674 -755 0
-673 674 755 0
673 -674 755 0
-673 -674 -755 0
675 676 -756 0
-675 676 756 0
675 -676 756 0
-675 -676 -756 0
677 678 -757 0
-677 678 757 0
677 -678 757 0
-677 -678 -757 0
679 680 -758 0
-679 680 758 0
679 -680 758 0
-679 -680 -758 0
681 682 -759 0
-681 682 759 0
681 -682 759 0
-681 -682 -759 0
683 684 -760 0
-683 684 760 0
683 -684 760 0
-683 -684 -760 0
685 686 -761 0
-685 686 761 0
685 -686 761 0
-685 -686 -761 0
687 688 -762 0
-687 688 762 0
687 -688 762 0
-687 -688 -762 0
689 690 -763 0
-689 690 763 0
689 -690 763 0
-689 -690 -763 0
691 692 -764 0
-691 692 764 0
691 -692 764 0
-691 -692 -764 0
693 694 -765 0
-693 694 765 0
693 -694 765 0
-693 -694 -765 0
695 696 -766 0
-695 696 766 0
695 -696 766 0
-695 -696 -766 0
697 698 -767 0
-697 698 767 0
697 -698 767 0
-697 -698 -767 0
699 700 -768 0
-699 700 768 0
699 -700 768 0
-699 -700 -768 0
701 702 -769 0
-701 702 769 0
701 -702 769 0
-701 -702 -769 0
703 704 -770 0
-703 704 770 0
703 -704 770 0
-703 -704 -770 0
705 706 -771 0
-705 706 771 0
705 -706 771 0
-705 -706 -771 0
707 708 -772 0
-707 708 772 0
707 -708 772 0
-707 -708 -772 0
709 710 -773 0
-709 710 773 0
709 -710 773 0
-709 -710 -773 0
711 712 -774 0
-711 712 774 0
711 -712 774 0
-711 -712 -774 0
713 714 -775 0
-713 714 775 0
713 -714 775 0
-713 -714 -775 0
715 716 -776 0
-715 716 776 0
715 -716 776 0
-715 -716 -776 0
717 718 -777 0
-717 718 777 0
717 -718 777 0
-717 -718 -777 0
719 720 -778 0
-719 720 778 0
719 -720 778 0
-719 -720 -778 0
721 722 -779 0
-721 722 779 0
721 -722 779 0
-721 -722 -779 0
723 724 -780 0
-723 724 780 0
723 -724 780 0
-723 -724 -780 0
725 726 -781 0
-725 726 781 0
725 -726 781 0
-725 -726 -781 0
727 728 -782 0
-727 728 782 0
727 -728 782 0
-727 -728 -782 0
729 730 -783 0
-729 730 783 0
729 -730 783 0
-729 -730 -783 0
731 732 -784 0
-731 732 784 0
731 -732 784 0
-731 -732 -784 0
733 734 -785 0
-733 734 785 0
733 -734 785 0
-733 -734 -785 0
735 736 -786 0
-735 736 786 0
735 -736 786 0
-735 -736 -786 0
737 738 -787 0
-737 738 787 0
737 -738 787 0
-737 -738 -787 0
739 740 -788 0
-739 740 788 0
739 -740 788 0
-739 -740 -788 0
741 742 -789 0
-741 742 789 0
741 -742 789 0
-741 -742 -789 0
743 744 -790 0
-743 744 790 0
743 -744 790 0
-743 -744 -790 0
745 746 -791 0
-745 746 791 0
745 -746 791 0
-745 -746 -791 0
747 748 -792 0
-747 748 792 0
747 -748 792 0
-747 -748 -792 0
749 750 -793 0
-749 750 793 0
749 -750 793 0
-749 -750 -793 0
751 752 -794 0
-751 752 794 0
751 -752 794 0
-751 -752 -794 0
753 754 -795 0
-753 754 795 0
753 -754 795 0
-753 -754 -795 0
755 756 -796 0
-755 756 796 0
755 -756 796 0
-755 -756 -796 0
757 758 -797 0
-757 758 797 0
757 -758 797 0
-757 -758 -797 0
759 760 -798 0
-759 760 798 0
759 -760 798 0
-759 -760 -798 0
761 762 -799 0
-761 762 799 0
761 -762 799 0
-761 -762 -799 0
763 764 -800 0
-763 764 800 0
763 -764 800 0
-763 -764 -800 0
765 766 -801 0
-765 766 801 0
765 -766 801 0
-765 -766 -801 0
767 768 -802 0
-767 768 802 0
767 -768 802 0
-767 -768 -802 0
769 770 -803 0
-769 770 803 0
769 -770 803 0
-769 -770 -803 0
771 772 -804 0
-771 772 804 0
771 -772 804 0
-771 -772 -804 0
773 774 -805 0
-773 774 805 0
773 -774 805 0
-773 -774 -805 0
775 776 -806 0
-775 776 806 0
775 -776 806 0
-775 -776 -806 0
777 778 -807 0
-777 778 807 0
777 -778 807 0
-777 -778 -807 0
779 780 -808 0
-779 780 808 0
779 -780 808 0
-779 -780 -808 0
781 782 -809 0
-781 782 809 0
781 -782 809 0
-781 -782 -809 0
783 784 -810 0
-783 784 810 0
783 -784 810 0
-783 -784 -810 0
785 786 -811 0
-785 786 811 0
785 -786 811 0
-785 -786 -811 0
787 788 -812 0
-787 788 812 0
787 -788 812 0
-787 -788 -812 0
789 790 -813 0
-789 790 813 0
789 -790 813 0
-789 -790 -813 0
791 792 -814 0
-791 792 814 0
791 -792 814 0
-791 -792 -814 0
793 794 -815 0
-793 794 815 0
793 -794 815 0
-793 -794 -815 0
795 796 -816 0
-795 796 816 0
795 -796 816 0
-795 -796 -816 0
797 798 -817 0
-797 798 817 0
797 -798 817 0
-797 -798 -817 0
799 800 -818 0
-799 800 818 0
799 -800 818 0
-799 -800 -818 0
801 802 -819 0
-801 802 819 0
801 -802 819 0
-801 -802 -819 0
803 804 -820 0
-803 804 820 0
803 -804 820 0
-803 -804 -820 0
805 806 -821 0
-805 806 821 0
805 -806 821 0
-805 -806 -821 0
807 808 -822 0
-807 808 822 0
807 -808 822 0
-807 -808 -822 0
809 810 -823 0
-809 810 823 0
809 -810 823 0
-809 -810 -823 0
811 812 -824 0
-811 812 824 0
811 -812 824 0
-811 -812 -824 0
813 814 -825 0
-813 814 825 0
813 -814 825 0
-813 -814 -825 0
815 816 -826 0
-815 816 826 0
815 -816 826 0
-815 -816 -826 0
817 818 -827 0
-817 818 827 0
817 -818 827 0
-817 -818 -827 0
819 820 -828 0
-819 820 828 0
819 -820 828 0
-819 -820 -828 0
821 822 -829 0
-821 822 829 0
821 -822 829 0
-821 -822 -829 0
823 417 -830 0
-823 417 830 0
823 -417 830 0
-823 -417 -830 0
824 825 -831 0
-824 825 831 0
824 -825 831 0
-824 -825 -831 0
826 827 -832 0
-826 827 832 0
826 -827 832 0
-826 -827 -832 0
828 829 -833 0
-828 829 833 0
828 -829 833 0
-828 -829 -833 0
831 832 -834 0
-831 832 834 0
831 -832 834 0
-831 -832 -834 0
833 830 -835 0
-833 830 835 0
833 -830 835 0
-833 -830 -835 0
834 835 -418 0
-834 835 418 0
834 -835 418 0
-834 -835 -418 0
